130084.0
1622
0 4 5 6 9 12 15 17 18 22 23 24 25 27 29 30 37 38 39 40 44 50 52 53 65 70 72 74 75 76 81 83 85 86 91 93 94 96 100 101 105 106 111 113 115 117 121 124 126 128 129 131 141 143 145 147 151 153 154 156 160 161 162 163 165 166 167 169 171 174 175 178 180 186 189 194 197 